
Gurobi 13.0.2 (win64) logging started Mon Jul 20 08:08:07 2026

Set parameter LogFile to value "E:\codes\ExactEBRP\results\gf_solver_backend_migration_round24r\runs\stage2__high_imbalance_seed3202__t_grb_ext_cold__300s\external\native_logs\L2.0.0_attempt_1.gurobi.log"
Gurobi Optimizer version 13.0.2 build v13.0.2rc1 (win64 - Windows 10.0 (19045.2))

CPU model: 12th Gen Intel(R) Core(TM) i7-12700KF, instruction set [SSE2|AVX|AVX2]
Thread count: 12 physical cores, 20 logical processors, using up to 1 threads

Non-default parameters:
TimeLimit  2.3906674825999978e+01
MIPGap  0
MIPGapAbs  0
LogToConsole  0
Threads  1

Optimize a model with 11895 rows, 3372 columns and 67322 nonzeros (Min)
Model fingerprint: 0x06a46df4
Model has 21 linear objective coefficients
Variable types: 1683 continuous, 1689 integer (1489 binary)
Coefficient statistics:
  Matrix range     [1e-02, 2e+04]
  Objective range  [1e-02, 1e+00]
  Bounds range     [5e-01, 2e+03]
  RHS range        [5e-01, 5e+04]

Presolved: 9498 rows, 3280 columns, 58054 nonzeros

Continuing optimization...

   208   200    1.70453    1  262          -    1.69614      -   429   30s
   282   247    1.74300   15  270          -    1.69745      -   454   35s
   370   320    1.72569   75  240          -    1.69747      -   453   40s
   490   422    1.70662    7  277          -    1.69747      -   395   45s
   559   483    1.72416  147  287          -    1.69747      -   389   50s

Cutting planes:
  Learned: 11
  Gomory: 2
  Cover: 42
  Implied bound: 111
  Projected implied bound: 16
  Clique: 9
  MIR: 123
  StrongCG: 11
  Flow cover: 135
  GUB cover: 3
  Zero half: 7
  Network: 18
  RLT: 3
  Relax-and-lift: 28
  BQP: 5

Explored 562 nodes (285183 simplex iterations) in 53.92 seconds (116.28 work units)
Most recent optimization runtime was 23.91 seconds (51.46 work units)
Thread count was 1 (of 20 available processors)

Solution count 0

Time limit reached
Best objective -, best bound 1.697466649429e+00, gap -

User-callback calls 5118, time in user-callback 0.00 sec
